\ Model VRPmodel
\ LP format - for model browsing. Use MPS format to capture full model detail.
Minimize
  19 X_0,1,0 + 19 X_0,1,1 + 19 X_0,1,2 + 16 X_0,2,0 + 16 X_0,2,1
   + 16 X_0,2,2 + 18.11077027627483 X_0,3,0 + 18.11077027627483 X_0,3,1
   + 18.11077027627483 X_0,3,2 + 20.09975124224178 X_0,4,0
   + 20.09975124224178 X_0,4,1 + 20.09975124224178 X_0,4,2 + 19 X_1,0,0
   + 19 X_1,0,1 + 19 X_1,0,2 + 3 X_1,2,0 + 3 X_1,2,1 + 3 X_1,2,2
   + 2.23606797749979 X_1,3,0 + 2.23606797749979 X_1,3,1
   + 2.23606797749979 X_1,3,2 + 2.23606797749979 X_1,4,0
   + 2.23606797749979 X_1,4,1 + 2.23606797749979 X_1,4,2 + 19 X_1,5,0
   + 19 X_1,5,1 + 19 X_1,5,2 + 16 X_2,0,0 + 16 X_2,0,1 + 16 X_2,0,2
   + 3 X_2,1,0 + 3 X_2,1,1 + 3 X_2,1,2 + 2.82842712474619 X_2,3,0
   + 2.82842712474619 X_2,3,1 + 2.82842712474619 X_2,3,2
   + 4.47213595499958 X_2,4,0 + 4.47213595499958 X_2,4,1
   + 4.47213595499958 X_2,4,2 + 16 X_2,5,0 + 16 X_2,5,1 + 16 X_2,5,2
   + 18.11077027627483 X_3,0,0 + 18.11077027627483 X_3,0,1
   + 18.11077027627483 X_3,0,2 + 2.23606797749979 X_3,1,0
   + 2.23606797749979 X_3,1,1 + 2.23606797749979 X_3,1,2
   + 2.82842712474619 X_3,2,0 + 2.82842712474619 X_3,2,1
   + 2.82842712474619 X_3,2,2 + 2 X_3,4,0 + 2 X_3,4,1 + 2 X_3,4,2
   + 18.11077027627483 X_3,5,0 + 18.11077027627483 X_3,5,1
   + 18.11077027627483 X_3,5,2 + 20.09975124224178 X_4,0,0
   + 20.09975124224178 X_4,0,1 + 20.09975124224178 X_4,0,2
   + 2.23606797749979 X_4,1,0 + 2.23606797749979 X_4,1,1
   + 2.23606797749979 X_4,1,2 + 4.47213595499958 X_4,2,0
   + 4.47213595499958 X_4,2,1 + 4.47213595499958 X_4,2,2 + 2 X_4,3,0
   + 2 X_4,3,1 + 2 X_4,3,2 + 20.09975124224178 X_4,5,0
   + 20.09975124224178 X_4,5,1 + 20.09975124224178 X_4,5,2 + 19 X_5,1,0
   + 19 X_5,1,1 + 19 X_5,1,2 + 16 X_5,2,0 + 16 X_5,2,1 + 16 X_5,2,2
   + 18.11077027627483 X_5,3,0 + 18.11077027627483 X_5,3,1
   + 18.11077027627483 X_5,3,2 + 20.09975124224178 X_5,4,0
   + 20.09975124224178 X_5,4,1 + 20.09975124224178 X_5,4,2
Subject To
 conA[1]-: X_1,0,0 + X_1,0,1 + X_1,0,2 + X_1,2,0 + X_1,2,1 + X_1,2,2
   + X_1,3,0 + X_1,3,1 + X_1,3,2 + X_1,4,0 + X_1,4,1 + X_1,4,2 + X_1,5,0
   + X_1,5,1 + X_1,5,2 = 1
 conA[2]-: X_2,0,0 + X_2,0,1 + X_2,0,2 + X_2,1,0 + X_2,1,1 + X_2,1,2
   + X_2,3,0 + X_2,3,1 + X_2,3,2 + X_2,4,0 + X_2,4,1 + X_2,4,2 + X_2,5,0
   + X_2,5,1 + X_2,5,2 = 1
 conA[3]-: X_3,0,0 + X_3,0,1 + X_3,0,2 + X_3,1,0 + X_3,1,1 + X_3,1,2
   + X_3,2,0 + X_3,2,1 + X_3,2,2 + X_3,4,0 + X_3,4,1 + X_3,4,2 + X_3,5,0
   + X_3,5,1 + X_3,5,2 = 1
 conA[4]-: X_4,0,0 + X_4,0,1 + X_4,0,2 + X_4,1,0 + X_4,1,1 + X_4,1,2
   + X_4,2,0 + X_4,2,1 + X_4,2,2 + X_4,3,0 + X_4,3,1 + X_4,3,2 + X_4,5,0
   + X_4,5,1 + X_4,5,2 = 1
 conA[5]-: X_5,0,0 + X_5,0,1 + X_5,0,2 + X_5,1,0 + X_5,1,1 + X_5,1,2
   + X_5,2,0 + X_5,2,1 + X_5,2,2 + X_5,3,0 + X_5,3,1 + X_5,3,2 + X_5,4,0
   + X_5,4,1 + X_5,4,2 = 1
 conE[0]-: 20 X_1,0,0 + 20 X_1,2,0 + 20 X_1,3,0 + 20 X_1,4,0 + 20 X_1,5,0
   + 20 X_2,0,0 + 20 X_2,1,0 + 20 X_2,3,0 + 20 X_2,4,0 + 20 X_2,5,0
   + 20 X_3,0,0 + 20 X_3,1,0 + 20 X_3,2,0 + 20 X_3,4,0 + 20 X_3,5,0
   + 10 X_4,0,0 + 10 X_4,1,0 + 10 X_4,2,0 + 10 X_4,3,0 + 10 X_4,5,0
   <= 1.3e+07
 conE[1]-: 20 X_1,0,1 + 20 X_1,2,1 + 20 X_1,3,1 + 20 X_1,4,1 + 20 X_1,5,1
   + 20 X_2,0,1 + 20 X_2,1,1 + 20 X_2,3,1 + 20 X_2,4,1 + 20 X_2,5,1
   + 20 X_3,0,1 + 20 X_3,1,1 + 20 X_3,2,1 + 20 X_3,4,1 + 20 X_3,5,1
   + 10 X_4,0,1 + 10 X_4,1,1 + 10 X_4,2,1 + 10 X_4,3,1 + 10 X_4,5,1
   <= 1.3e+06
 conE[2]-: 20 X_1,0,2 + 20 X_1,2,2 + 20 X_1,3,2 + 20 X_1,4,2 + 20 X_1,5,2
   + 20 X_2,0,2 + 20 X_2,1,2 + 20 X_2,3,2 + 20 X_2,4,2 + 20 X_2,5,2
   + 20 X_3,0,2 + 20 X_3,1,2 + 20 X_3,2,2 + 20 X_3,4,2 + 20 X_3,5,2
   + 10 X_4,0,2 + 10 X_4,1,2 + 10 X_4,2,2 + 10 X_4,3,2 + 10 X_4,5,2
   <= 1.3e+06
 conB[0]-: X_0,1,0 + X_0,2,0 + X_0,3,0 + X_0,4,0 + X_0,5,0 = 1
 conB[1]-: X_0,1,1 + X_0,2,1 + X_0,3,1 + X_0,4,1 + X_0,5,1 = 1
 conB[2]-: X_0,1,2 + X_0,2,2 + X_0,3,2 + X_0,4,2 + X_0,5,2 = 1
 conC[1,0]-: X_0,1,0 - X_1,0,0 - X_1,2,0 - X_1,3,0 - X_1,4,0 - X_1,5,0
   + X_2,1,0 + X_3,1,0 + X_4,1,0 + X_5,1,0 = 0
 conC[1,1]-: X_0,1,1 - X_1,0,1 - X_1,2,1 - X_1,3,1 - X_1,4,1 - X_1,5,1
   + X_2,1,1 + X_3,1,1 + X_4,1,1 + X_5,1,1 = 0
 conC[1,2]-: X_0,1,2 - X_1,0,2 - X_1,2,2 - X_1,3,2 - X_1,4,2 - X_1,5,2
   + X_2,1,2 + X_3,1,2 + X_4,1,2 + X_5,1,2 = 0
 conC[2,0]-: X_0,2,0 + X_1,2,0 - X_2,0,0 - X_2,1,0 - X_2,3,0 - X_2,4,0
   - X_2,5,0 + X_3,2,0 + X_4,2,0 + X_5,2,0 = 0
 conC[2,1]-: X_0,2,1 + X_1,2,1 - X_2,0,1 - X_2,1,1 - X_2,3,1 - X_2,4,1
   - X_2,5,1 + X_3,2,1 + X_4,2,1 + X_5,2,1 = 0
 conC[2,2]-: X_0,2,2 + X_1,2,2 - X_2,0,2 - X_2,1,2 - X_2,3,2 - X_2,4,2
   - X_2,5,2 + X_3,2,2 + X_4,2,2 + X_5,2,2 = 0
 conC[3,0]-: X_0,3,0 + X_1,3,0 + X_2,3,0 - X_3,0,0 - X_3,1,0 - X_3,2,0
   - X_3,4,0 - X_3,5,0 + X_4,3,0 + X_5,3,0 = 0
 conC[3,1]-: X_0,3,1 + X_1,3,1 + X_2,3,1 - X_3,0,1 - X_3,1,1 - X_3,2,1
   - X_3,4,1 - X_3,5,1 + X_4,3,1 + X_5,3,1 = 0
 conC[3,2]-: X_0,3,2 + X_1,3,2 + X_2,3,2 - X_3,0,2 - X_3,1,2 - X_3,2,2
   - X_3,4,2 - X_3,5,2 + X_4,3,2 + X_5,3,2 = 0
 conC[4,0]-: X_0,4,0 + X_1,4,0 + X_2,4,0 + X_3,4,0 - X_4,0,0 - X_4,1,0
   - X_4,2,0 - X_4,3,0 - X_4,5,0 + X_5,4,0 = 0
 conC[4,1]-: X_0,4,1 + X_1,4,1 + X_2,4,1 + X_3,4,1 - X_4,0,1 - X_4,1,1
   - X_4,2,1 - X_4,3,1 - X_4,5,1 + X_5,4,1 = 0
 conC[4,2]-: X_0,4,2 + X_1,4,2 + X_2,4,2 + X_3,4,2 - X_4,0,2 - X_4,1,2
   - X_4,2,2 - X_4,3,2 - X_4,5,2 + X_5,4,2 = 0
 conC[5,0]-: X_0,5,0 + X_1,5,0 + X_2,5,0 + X_3,5,0 + X_4,5,0 - X_5,0,0
   - X_5,1,0 - X_5,2,0 - X_5,3,0 - X_5,4,0 = 0
 conC[5,1]-: X_0,5,1 + X_1,5,1 + X_2,5,1 + X_3,5,1 + X_4,5,1 - X_5,0,1
   - X_5,1,1 - X_5,2,1 - X_5,3,1 - X_5,4,1 = 0
 conC[5,2]-: X_0,5,2 + X_1,5,2 + X_2,5,2 + X_3,5,2 + X_4,5,2 - X_5,0,2
   - X_5,1,2 - X_5,2,2 - X_5,3,2 - X_5,4,2 = 0
 conD[0]-: X_1,5,0 + X_2,5,0 + X_3,5,0 + X_4,5,0 + X_5,5,0 = 1
 conD[1]-: X_1,5,1 + X_2,5,1 + X_3,5,1 + X_4,5,1 + X_5,5,1 = 1
 conD[2]-: X_1,5,2 + X_2,5,2 + X_3,5,2 + X_4,5,2 + X_5,5,2 = 1
 conF[0,0]-: T_0,0 >= 0
 conF[0,1]-: T_0,1 >= 0
 conF[0,2]-: T_0,2 >= 0
 conF[1,0]-: T_1,0 >= 10
 conF[1,1]-: T_1,1 >= 10
 conF[1,2]-: T_1,2 >= 10
 conF[2,0]-: T_2,0 >= 18
 conF[2,1]-: T_2,1 >= 18
 conF[2,2]-: T_2,2 >= 18
 conF[3,0]-: T_3,0 >= 110
 conF[3,1]-: T_3,1 >= 110
 conF[3,2]-: T_3,2 >= 110
 conF[4,0]-: T_4,0 >= 100
 conF[4,1]-: T_4,1 >= 100
 conF[4,2]-: T_4,2 >= 100
 conF[5,0]-: T_5,0 >= 0
 conF[5,1]-: T_5,1 >= 0
 conF[5,2]-: T_5,2 >= 0
 conG[0,0]-: T_0,0 <= 1236
 conG[0,1]-: T_0,1 <= 1236
 conG[0,2]-: T_0,2 <= 1236
 conG[1,0]-: T_1,0 <= 842
 conG[1,1]-: T_1,1 <= 842
 conG[1,2]-: T_1,2 <= 842
 conG[2,0]-: T_2,0 <= 378
 conG[2,1]-: T_2,1 <= 378
 conG[2,2]-: T_2,2 <= 378
 conG[3,0]-: T_3,0 <= 1000
 conG[3,1]-: T_3,1 <= 1000
 conG[3,2]-: T_3,2 <= 1000
 conG[4,0]-: T_4,0 <= 1000
 conG[4,1]-: T_4,1 <= 1000
 conG[4,2]-: T_4,2 <= 1000
 conG[5,0]-: T_5,0 <= 1236
 conG[5,1]-: T_5,1 <= 1236
 conG[5,2]-: T_5,2 <= 1236
 conH[0,0,0]-: 10000 X_0,0,0 <= 10000
 conH[0,0,1]-: 10000 X_0,0,1 <= 10000
 conH[0,0,2]-: 10000 X_0,0,2 <= 10000
 conH[0,1,0]-: 10000 X_0,1,0 + T_0,0 - T_1,0 <= 9981
 conH[0,1,1]-: 10000 X_0,1,1 + T_0,1 - T_1,1 <= 9981
 conH[0,1,2]-: 10000 X_0,1,2 + T_0,2 - T_1,2 <= 9981
 conH[0,2,0]-: 10000 X_0,2,0 + T_0,0 - T_2,0 <= 9984
 conH[0,2,1]-: 10000 X_0,2,1 + T_0,1 - T_2,1 <= 9984
 conH[0,2,2]-: 10000 X_0,2,2 + T_0,2 - T_2,2 <= 9984
 conH[0,3,0]-: 10000 X_0,3,0 + T_0,0 - T_3,0 <= 9981.889229723725
 conH[0,3,1]-: 10000 X_0,3,1 + T_0,1 - T_3,1 <= 9981.889229723725
 conH[0,3,2]-: 10000 X_0,3,2 + T_0,2 - T_3,2 <= 9981.889229723725
 conH[0,4,0]-: 10000 X_0,4,0 + T_0,0 - T_4,0 <= 9979.900248757758
 conH[0,4,1]-: 10000 X_0,4,1 + T_0,1 - T_4,1 <= 9979.900248757758
 conH[0,4,2]-: 10000 X_0,4,2 + T_0,2 - T_4,2 <= 9979.900248757758
 conH[0,5,0]-: 10000 X_0,5,0 + T_0,0 - T_5,0 <= 10000
 conH[0,5,1]-: 10000 X_0,5,1 + T_0,1 - T_5,1 <= 10000
 conH[0,5,2]-: 10000 X_0,5,2 + T_0,2 - T_5,2 <= 10000
 conH[1,0,0]-: 10000 X_1,0,0 - T_0,0 + T_1,0 <= 9891
 conH[1,0,1]-: 10000 X_1,0,1 - T_0,1 + T_1,1 <= 9891
 conH[1,0,2]-: 10000 X_1,0,2 - T_0,2 + T_1,2 <= 9891
 conH[1,1,0]-: 10000 X_1,1,0 <= 9910
 conH[1,1,1]-: 10000 X_1,1,1 <= 9910
 conH[1,1,2]-: 10000 X_1,1,2 <= 9910
 conH[1,2,0]-: 10000 X_1,2,0 + T_1,0 - T_2,0 <= 9907
 conH[1,2,1]-: 10000 X_1,2,1 + T_1,1 - T_2,1 <= 9907
 conH[1,2,2]-: 10000 X_1,2,2 + T_1,2 - T_2,2 <= 9907
 conH[1,3,0]-: 10000 X_1,3,0 + T_1,0 - T_3,0 <= 9907.763932022501
 conH[1,3,1]-: 10000 X_1,3,1 + T_1,1 - T_3,1 <= 9907.763932022501
 conH[1,3,2]-: 10000 X_1,3,2 + T_1,2 - T_3,2 <= 9907.763932022501
 conH[1,4,0]-: 10000 X_1,4,0 + T_1,0 - T_4,0 <= 9907.763932022501
 conH[1,4,1]-: 10000 X_1,4,1 + T_1,1 - T_4,1 <= 9907.763932022501
 conH[1,4,2]-: 10000 X_1,4,2 + T_1,2 - T_4,2 <= 9907.763932022501
 conH[1,5,0]-: 10000 X_1,5,0 + T_1,0 - T_5,0 <= 9891
 conH[1,5,1]-: 10000 X_1,5,1 + T_1,1 - T_5,1 <= 9891
 conH[1,5,2]-: 10000 X_1,5,2 + T_1,2 - T_5,2 <= 9891
 conH[2,0,0]-: 10000 X_2,0,0 - T_0,0 + T_2,0 <= 9894
 conH[2,0,1]-: 10000 X_2,0,1 - T_0,1 + T_2,1 <= 9894
 conH[2,0,2]-: 10000 X_2,0,2 - T_0,2 + T_2,2 <= 9894
 conH[2,1,0]-: 10000 X_2,1,0 - T_1,0 + T_2,0 <= 9907
 conH[2,1,1]-: 10000 X_2,1,1 - T_1,1 + T_2,1 <= 9907
 conH[2,1,2]-: 10000 X_2,1,2 - T_1,2 + T_2,2 <= 9907
 conH[2,2,0]-: 10000 X_2,2,0 <= 9910
 conH[2,2,1]-: 10000 X_2,2,1 <= 9910
 conH[2,2,2]-: 10000 X_2,2,2 <= 9910
 conH[2,3,0]-: 10000 X_2,3,0 + T_2,0 - T_3,0 <= 9907.171572875253
 conH[2,3,1]-: 10000 X_2,3,1 + T_2,1 - T_3,1 <= 9907.171572875253
 conH[2,3,2]-: 10000 X_2,3,2 + T_2,2 - T_3,2 <= 9907.171572875253
 conH[2,4,0]-: 10000 X_2,4,0 + T_2,0 - T_4,0 <= 9905.527864045
 conH[2,4,1]-: 10000 X_2,4,1 + T_2,1 - T_4,1 <= 9905.527864045
 conH[2,4,2]-: 10000 X_2,4,2 + T_2,2 - T_4,2 <= 9905.527864045
 conH[2,5,0]-: 10000 X_2,5,0 + T_2,0 - T_5,0 <= 9894
 conH[2,5,1]-: 10000 X_2,5,1 + T_2,1 - T_5,1 <= 9894
 conH[2,5,2]-: 10000 X_2,5,2 + T_2,2 - T_5,2 <= 9894
 conH[3,0,0]-: 10000 X_3,0,0 - T_0,0 + T_3,0 <= 9891.889229723725
 conH[3,0,1]-: 10000 X_3,0,1 - T_0,1 + T_3,1 <= 9891.889229723725
 conH[3,0,2]-: 10000 X_3,0,2 - T_0,2 + T_3,2 <= 9891.889229723725
 conH[3,1,0]-: 10000 X_3,1,0 - T_1,0 + T_3,0 <= 9907.763932022501
 conH[3,1,1]-: 10000 X_3,1,1 - T_1,1 + T_3,1 <= 9907.763932022501
 conH[3,1,2]-: 10000 X_3,1,2 - T_1,2 + T_3,2 <= 9907.763932022501
 conH[3,2,0]-: 10000 X_3,2,0 - T_2,0 + T_3,0 <= 9907.171572875253
 conH[3,2,1]-: 10000 X_3,2,1 - T_2,1 + T_3,1 <= 9907.171572875253
 conH[3,2,2]-: 10000 X_3,2,2 - T_2,2 + T_3,2 <= 9907.171572875253
 conH[3,3,0]-: 10000 X_3,3,0 <= 9910
 conH[3,3,1]-: 10000 X_3,3,1 <= 9910
 conH[3,3,2]-: 10000 X_3,3,2 <= 9910
 conH[3,4,0]-: 10000 X_3,4,0 + T_3,0 - T_4,0 <= 9908
 conH[3,4,1]-: 10000 X_3,4,1 + T_3,1 - T_4,1 <= 9908
 conH[3,4,2]-: 10000 X_3,4,2 + T_3,2 - T_4,2 <= 9908
 conH[3,5,0]-: 10000 X_3,5,0 + T_3,0 - T_5,0 <= 9891.889229723725
 conH[3,5,1]-: 10000 X_3,5,1 + T_3,1 - T_5,1 <= 9891.889229723725
 conH[3,5,2]-: 10000 X_3,5,2 + T_3,2 - T_5,2 <= 9891.889229723725
 conH[4,0,0]-: 10000 X_4,0,0 - T_0,0 + T_4,0 <= 9889.900248757758
 conH[4,0,1]-: 10000 X_4,0,1 - T_0,1 + T_4,1 <= 9889.900248757758
 conH[4,0,2]-: 10000 X_4,0,2 - T_0,2 + T_4,2 <= 9889.900248757758
 conH[4,1,0]-: 10000 X_4,1,0 - T_1,0 + T_4,0 <= 9907.763932022501
 conH[4,1,1]-: 10000 X_4,1,1 - T_1,1 + T_4,1 <= 9907.763932022501
 conH[4,1,2]-: 10000 X_4,1,2 - T_1,2 + T_4,2 <= 9907.763932022501
 conH[4,2,0]-: 10000 X_4,2,0 - T_2,0 + T_4,0 <= 9905.527864045
 conH[4,2,1]-: 10000 X_4,2,1 - T_2,1 + T_4,1 <= 9905.527864045
 conH[4,2,2]-: 10000 X_4,2,2 - T_2,2 + T_4,2 <= 9905.527864045
 conH[4,3,0]-: 10000 X_4,3,0 - T_3,0 + T_4,0 <= 9908
 conH[4,3,1]-: 10000 X_4,3,1 - T_3,1 + T_4,1 <= 9908
 conH[4,3,2]-: 10000 X_4,3,2 - T_3,2 + T_4,2 <= 9908
 conH[4,4,0]-: 10000 X_4,4,0 <= 9910
 conH[4,4,1]-: 10000 X_4,4,1 <= 9910
 conH[4,4,2]-: 10000 X_4,4,2 <= 9910
 conH[4,5,0]-: 10000 X_4,5,0 + T_4,0 - T_5,0 <= 9889.900248757758
 conH[4,5,1]-: 10000 X_4,5,1 + T_4,1 - T_5,1 <= 9889.900248757758
 conH[4,5,2]-: 10000 X_4,5,2 + T_4,2 - T_5,2 <= 9889.900248757758
 conH[5,0,0]-: 10000 X_5,0,0 - T_0,0 + T_5,0 <= 10000
 conH[5,0,1]-: 10000 X_5,0,1 - T_0,1 + T_5,1 <= 10000
 conH[5,0,2]-: 10000 X_5,0,2 - T_0,2 + T_5,2 <= 10000
 conH[5,1,0]-: 10000 X_5,1,0 - T_1,0 + T_5,0 <= 9981
 conH[5,1,1]-: 10000 X_5,1,1 - T_1,1 + T_5,1 <= 9981
 conH[5,1,2]-: 10000 X_5,1,2 - T_1,2 + T_5,2 <= 9981
 conH[5,2,0]-: 10000 X_5,2,0 - T_2,0 + T_5,0 <= 9984
 conH[5,2,1]-: 10000 X_5,2,1 - T_2,1 + T_5,1 <= 9984
 conH[5,2,2]-: 10000 X_5,2,2 - T_2,2 + T_5,2 <= 9984
 conH[5,3,0]-: 10000 X_5,3,0 - T_3,0 + T_5,0 <= 9981.889229723725
 conH[5,3,1]-: 10000 X_5,3,1 - T_3,1 + T_5,1 <= 9981.889229723725
 conH[5,3,2]-: 10000 X_5,3,2 - T_3,2 + T_5,2 <= 9981.889229723725
 conH[5,4,0]-: 10000 X_5,4,0 - T_4,0 + T_5,0 <= 9979.900248757758
 conH[5,4,1]-: 10000 X_5,4,1 - T_4,1 + T_5,1 <= 9979.900248757758
 conH[5,4,2]-: 10000 X_5,4,2 - T_4,2 + T_5,2 <= 9979.900248757758
 conH[5,5,0]-: 10000 X_5,5,0 <= 10000
 conH[5,5,1]-: 10000 X_5,5,1 <= 10000
 conH[5,5,2]-: 10000 X_5,5,2 <= 10000
Bounds
Binaries
 X_0,0,0 X_0,0,1 X_0,0,2 X_0,1,0 X_0,1,1 X_0,1,2 X_0,2,0 X_0,2,1 X_0,2,2
 X_0,3,0 X_0,3,1 X_0,3,2 X_0,4,0 X_0,4,1 X_0,4,2 X_0,5,0 X_0,5,1 X_0,5,2
 X_1,0,0 X_1,0,1 X_1,0,2 X_1,1,0 X_1,1,1 X_1,1,2 X_1,2,0 X_1,2,1 X_1,2,2
 X_1,3,0 X_1,3,1 X_1,3,2 X_1,4,0 X_1,4,1 X_1,4,2 X_1,5,0 X_1,5,1 X_1,5,2
 X_2,0,0 X_2,0,1 X_2,0,2 X_2,1,0 X_2,1,1 X_2,1,2 X_2,2,0 X_2,2,1 X_2,2,2
 X_2,3,0 X_2,3,1 X_2,3,2 X_2,4,0 X_2,4,1 X_2,4,2 X_2,5,0 X_2,5,1 X_2,5,2
 X_3,0,0 X_3,0,1 X_3,0,2 X_3,1,0 X_3,1,1 X_3,1,2 X_3,2,0 X_3,2,1 X_3,2,2
 X_3,3,0 X_3,3,1 X_3,3,2 X_3,4,0 X_3,4,1 X_3,4,2 X_3,5,0 X_3,5,1 X_3,5,2
 X_4,0,0 X_4,0,1 X_4,0,2 X_4,1,0 X_4,1,1 X_4,1,2 X_4,2,0 X_4,2,1 X_4,2,2
 X_4,3,0 X_4,3,1 X_4,3,2 X_4,4,0 X_4,4,1 X_4,4,2 X_4,5,0 X_4,5,1 X_4,5,2
 X_5,0,0 X_5,0,1 X_5,0,2 X_5,1,0 X_5,1,1 X_5,1,2 X_5,2,0 X_5,2,1 X_5,2,2
 X_5,3,0 X_5,3,1 X_5,3,2 X_5,4,0 X_5,4,1 X_5,4,2 X_5,5,0 X_5,5,1 X_5,5,2
End
